\ENCODING=ISO-8859-1
\Problem name: IloCplex

Maximize
 obj: - 0.0787878787878788 v41 - 0.109090909090909 v23 - 0.248484848484848 v18
      - 0.321212121212121 v24 - v35 + f4137 + 999.721212121212 v37 + 4 f4126
      + 999.690909090909 v26 + f3937 - 0.0787878787878788 v39 + 4 f3926
      + 6 f365 - 0.224242424242424 v36 + f3613 + 1000 f3745
      - 0.406060606060606 v45 + f3543 - 0.212121212121212 v43 + f3531 + f3519
      + 1000 f3510 - 0.103030303030303 v10 + 1000 f3520
      - 0.0787878787878788 v20 + 1000 f3541 + 1000 f3539 + 1000 f3518 + 2 f2231
      + 999.769696969697 v22 + f3534 + 2 f2229 + f3528 + f366 + f1812
      + 1000 f3514 + f367 + f180 + f3521 + f3615 + f181 + f3627 + f2037
      + 1000 f2419 + f3632 + f1838 + f3616 + f182 + 1000 f3746
      - 0.357575757575758 v46 + f3540 + f1142 - 0.521212121212121 v11 + f941
      - 0.0848484848484849 v9 + f2344 + f937 + f233 + 1000 f3537 + f1028
      + f3649 + f939 + f368 + 4 f2026 + f920 + 1000 f3512 + 2 f1130 + 2 f2225
      + 1000 f3511 + f234 + f2431 + 1000 f2422 + f2415 + 1000 f3523
      + 1000 f3517 + 2 f3533 + 2 f3544 + f3536 + 1000 f3524 + 1000 f359
Subject To
 c1:   v48 <= 0
 c2:   v47 <= 0
 c3:   v41 <= 1
 c4:   v41 >= 1
 c5:   v44 <= 0
 c6:   v38 <= 0
 c7:   v15 <= 0
 c8:   v49 <= 0
 c9:   v16 <= 0
 c10:  v14 <= 0
 c11:  v13 <= 0
 c12:  v5 <= 0
 c13:  v23 <= 1
 c14:  v23 >= 1
 c15:  v8 <= 0
 c16:  v18 <= 1
 c17:  v18 >= 1
 c18:  v21 <= 0
 c19:  v6 <= 0
 c20:  v1 <= 0
 c21:  v12 <= 0
 c22:  v40 <= 0
 c23:  v30 <= 0
 c24:  v4 <= 0
 c25:  v0 <= 0
 c26:  v3 <= 0
 c27:  v2 <= 0
 c28:  v33 <= 0
 c29:  v17 <= 0
 c30:  v42 <= 0
 c31:  v19 <= 0
 c32:  v24 <= 1
 c33:  v24 >= 1
 c34:  v35 <= 0
 c35:  v31 <= 0
 c36:  v25 <= 0
 c37:  v27 <= 0
 c38:  v28 <= 0
 c39:  v29 <= 0
 c40:  v32 <= 0
 c41:  v7 <= 0
 c42:  v34 <= 0
 c43:  - v41 + f4137 + v37 <= 1
 c44:  v41 + f4137 - v37 <= 1
 c45:  - v41 + f4126 + v26 <= 1
 c46:  v41 + f4126 - v26 <= 1
 c47:  v37 + f3937 - v39 <= 1
 c48:  - v37 + f3937 + v39 <= 1
 c49:  v26 - v39 + f3926 <= 1
 c50:  - v26 + v39 + f3926 <= 1
 c51:  v5 + f365 - v36 <= 1
 c52:  - v5 + f365 + v36 <= 1
 c53:  v13 - v36 + f3613 <= 1
 c54:  - v13 + v36 + f3613 <= 1
 c55:  - v37 + f3745 + v45 <= 1
 c56:  v37 + f3745 - v45 <= 1
 c57:  - v35 + f3543 + v43 <= 1
 c58:  v35 + f3543 - v43 <= 1
 c59:  - v35 + v31 + f3531 <= 1
 c60:  v35 - v31 + f3531 <= 1
 c61:  v19 - v35 + f3519 <= 1
 c62:  - v19 + v35 + f3519 <= 1
 c63:  - v35 + f3510 + v10 <= 1
 c64:  v35 + f3510 - v10 <= 1
 c65:  - v35 + f3520 + v20 <= 1
 c66:  v35 + f3520 - v20 <= 1
 c67:  v41 - v35 + f3541 <= 1
 c68:  - v41 + v35 + f3541 <= 1
 c69:  - v35 + v39 + f3539 <= 1
 c70:  v35 - v39 + f3539 <= 1
 c71:  v18 - v35 + f3518 <= 1
 c72:  - v18 + v35 + f3518 <= 1
 c73:  v31 + f2231 - v22 <= 1
 c74:  - v31 + f2231 + v22 <= 1
 c75:  - v35 + v34 + f3534 <= 1
 c76:  v35 - v34 + f3534 <= 1
 c77:  v29 - v22 + f2229 <= 1
 c78:  - v29 + v22 + f2229 <= 1
 c79:  - v35 + v28 + f3528 <= 1
 c80:  v35 - v28 + f3528 <= 1
 c81:  v6 - v36 + f366 <= 1
 c82:  - v6 + v36 + f366 <= 1
 c83:  - v18 + v12 + f1812 <= 1
 c84:  v18 - v12 + f1812 <= 1
 c85:  v14 - v35 + f3514 <= 1
 c86:  - v14 + v35 + f3514 <= 1
 c87:  v7 - v36 + f367 <= 1
 c88:  - v7 + v36 + f367 <= 1
 c89:  - v18 + v0 + f180 <= 1
 c90:  v18 - v0 + f180 <= 1
 c91:  v21 - v35 + f3521 <= 1
 c92:  - v21 + v35 + f3521 <= 1
 c93:  v15 - v36 + f3615 <= 1
 c94:  - v15 + v36 + f3615 <= 1
 c95:  - v18 + v1 + f181 <= 1
 c96:  v18 - v1 + f181 <= 1
 c97:  v27 - v36 + f3627 <= 1
 c98:  - v27 + v36 + f3627 <= 1
 c99:  v37 - v20 + f2037 <= 1
 c100: - v37 + v20 + f2037 <= 1
 c101: v19 - v24 + f2419 <= 1
 c102: - v19 + v24 + f2419 <= 1
 c103: v32 - v36 + f3632 <= 1
 c104: - v32 + v36 + f3632 <= 1
 c105: v38 - v18 + f1838 <= 1
 c106: - v38 + v18 + f1838 <= 1
 c107: v16 - v36 + f3616 <= 1
 c108: - v16 + v36 + f3616 <= 1
 c109: - v18 + v2 + f182 <= 1
 c110: v18 - v2 + f182 <= 1
 c111: - v37 + f3746 + v46 <= 1
 c112: v37 + f3746 - v46 <= 1
 c113: v40 - v35 + f3540 <= 1
 c114: - v40 + v35 + f3540 <= 1
 c115: v42 + f1142 - v11 <= 1
 c116: - v42 + f1142 + v11 <= 1
 c117: v41 + f941 - v9 <= 1
 c118: - v41 + f941 + v9 <= 1
 c119: v44 - v23 + f2344 <= 1
 c120: - v44 + v23 + f2344 <= 1
 c121: v37 - v9 + f937 <= 1
 c122: - v37 + v9 + f937 <= 1
 c123: - v23 + v3 + f233 <= 1
 c124: v23 - v3 + f233 <= 1
 c125: - v35 + v37 + f3537 <= 1
 c126: v35 - v37 + f3537 <= 1
 c127: v28 - v10 + f1028 <= 1
 c128: - v28 + v10 + f1028 <= 1
 c129: v49 - v36 + f3649 <= 1
 c130: - v49 + v36 + f3649 <= 1
 c131: v39 - v9 + f939 <= 1
 c132: - v39 + v9 + f939 <= 1
 c133: v8 - v36 + f368 <= 1
 c134: - v8 + v36 + f368 <= 1
 c135: v26 - v20 + f2026 <= 1
 c136: - v26 + v20 + f2026 <= 1
 c137: v20 - v9 + f920 <= 1
 c138: - v20 + v9 + f920 <= 1
 c139: v12 - v35 + f3512 <= 1
 c140: - v12 + v35 + f3512 <= 1
 c141: v30 - v11 + f1130 <= 1
 c142: - v30 + v11 + f1130 <= 1
 c143: v25 - v22 + f2225 <= 1
 c144: - v25 + v22 + f2225 <= 1
 c145: - v35 + v11 + f3511 <= 1
 c146: v35 - v11 + f3511 <= 1
 c147: - v23 + v4 + f234 <= 1
 c148: v23 - v4 + f234 <= 1
 c149: - v24 + v31 + f2431 <= 1
 c150: v24 - v31 + f2431 <= 1
 c151: - v24 + v22 + f2422 <= 1
 c152: v24 - v22 + f2422 <= 1
 c153: v15 - v24 + f2415 <= 1
 c154: - v15 + v24 + f2415 <= 1
 c155: v23 - v35 + f3523 <= 1
 c156: - v23 + v35 + f3523 <= 1
 c157: v17 - v35 + f3517 <= 1
 c158: - v17 + v35 + f3517 <= 1
 c159: v33 - v35 + f3533 <= 1
 c160: - v33 + v35 + f3533 <= 1
 c161: v44 - v35 + f3544 <= 1
 c162: - v44 + v35 + f3544 <= 1
 c163: - v35 + v36 + f3536 <= 1
 c164: v35 - v36 + f3536 <= 1
 c165: v24 - v35 + f3524 <= 1
 c166: - v24 + v35 + f3524 <= 1
 c167: - v35 + v9 + f359 <= 1
 c168: v35 - v9 + f359 <= 1
Bounds
 0 <= v48 <= 1
 0 <= v47 <= 1
 0 <= v41 <= 1
 0 <= v44 <= 1
 0 <= v38 <= 1
 0 <= v15 <= 1
 0 <= v49 <= 1
 0 <= v16 <= 1
 0 <= v14 <= 1
 0 <= v13 <= 1
 0 <= v5 <= 1
 0 <= v23 <= 1
 0 <= v8 <= 1
 0 <= v18 <= 1
 0 <= v21 <= 1
 0 <= v6 <= 1
 0 <= v1 <= 1
 0 <= v12 <= 1
 0 <= v40 <= 1
 0 <= v30 <= 1
 0 <= v4 <= 1
 0 <= v0 <= 1
 0 <= v3 <= 1
 0 <= v2 <= 1
 0 <= v33 <= 1
 0 <= v17 <= 1
 0 <= v42 <= 1
 0 <= v19 <= 1
 0 <= v24 <= 1
 0 <= v35 <= 1
 0 <= v31 <= 1
 0 <= v25 <= 1
 0 <= v27 <= 1
 0 <= v28 <= 1
 0 <= v29 <= 1
 0 <= v32 <= 1
 0 <= v7 <= 1
 0 <= v34 <= 1
 0 <= f4137 <= 1
 0 <= v37 <= 1
 0 <= f4126 <= 1
 0 <= v26 <= 1
 0 <= f3937 <= 1
 0 <= v39 <= 1
 0 <= f3926 <= 1
 0 <= f365 <= 1
 0 <= v36 <= 1
 0 <= f3613 <= 1
 0 <= f3745 <= 1
 0 <= v45 <= 1
 0 <= f3543 <= 1
 0 <= v43 <= 1
 0 <= f3531 <= 1
 0 <= f3519 <= 1
 0 <= f3510 <= 1
 0 <= v10 <= 1
 0 <= f3520 <= 1
 0 <= v20 <= 1
 0 <= f3541 <= 1
 0 <= f3539 <= 1
 0 <= f3518 <= 1
 0 <= f2231 <= 1
 0 <= v22 <= 1
 0 <= f3534 <= 1
 0 <= f2229 <= 1
 0 <= f3528 <= 1
 0 <= f366 <= 1
 0 <= f1812 <= 1
 0 <= f3514 <= 1
 0 <= f367 <= 1
 0 <= f180 <= 1
 0 <= f3521 <= 1
 0 <= f3615 <= 1
 0 <= f181 <= 1
 0 <= f3627 <= 1
 0 <= f2037 <= 1
 0 <= f2419 <= 1
 0 <= f3632 <= 1
 0 <= f1838 <= 1
 0 <= f3616 <= 1
 0 <= f182 <= 1
 0 <= f3746 <= 1
 0 <= v46 <= 1
 0 <= f3540 <= 1
 0 <= f1142 <= 1
 0 <= v11 <= 1
 0 <= f941 <= 1
 0 <= v9 <= 1
 0 <= f2344 <= 1
 0 <= f937 <= 1
 0 <= f233 <= 1
 0 <= f3537 <= 1
 0 <= f1028 <= 1
 0 <= f3649 <= 1
 0 <= f939 <= 1
 0 <= f368 <= 1
 0 <= f2026 <= 1
 0 <= f920 <= 1
 0 <= f3512 <= 1
 0 <= f1130 <= 1
 0 <= f2225 <= 1
 0 <= f3511 <= 1
 0 <= f234 <= 1
 0 <= f2431 <= 1
 0 <= f2422 <= 1
 0 <= f2415 <= 1
 0 <= f3523 <= 1
 0 <= f3517 <= 1
 0 <= f3533 <= 1
 0 <= f3544 <= 1
 0 <= f3536 <= 1
 0 <= f3524 <= 1
 0 <= f359 <= 1
End
